71
125
87	1
86	1
85	2
84	5
83	3
82	2
81	4
80	5
79	1
78	4
77	3
75	2
74	2
73	4
72	1
71	1
70	1
69	3
68	4
66	4
65	4
64	3
63	2
62	2
61	2
59	5
58	3
57	1
56	4
55	5
54	4
53	1
52	1
51	1
50	4
49	2
48	4
47	1
46	1
45	2
44	3
42	3
41	2
40	4
39	2
38	1
37	4
35	1
34	4
33	6
32	3
31	1
30	5
29	2
28	3
27	6
26	5
25	3
24	5
23	5
22	4
21	1
20	2
19	4
18	2
17	3
16	5
15	1
14	2
13	2
12	1
